\Problem : SOD_BK : Shared Backup Network Provision for VNE (Guo2012)
Minimize
obj :  + 0.014609630668536698 Xvl#80sp#16#11 + 0.014609630668536698 Xvl#97sp#38#16#11 + 0.014609630668536698 Xvl#99sp#14#11 + 0.014609630668536698 Zs#11 + 0.014609630668536698 Xvl#81sp#12#15 + 0.014609630668536698 Xvl#96sp#12#15#37 + 0.014609630668536698 Xvl#98sp#12#13 + 0.014609630668536698 Zs#12 + 0.013387956194607331 Xvl#73sp#13#29 + 0.013387956194607331 Xvl#79sp#13#27 + 0.013387956194607331 Xvl#98sp#12#13 + 0.013387956194607331 Zs#13 + 0.013387956194607331 Xvl#72sp#30#14 + 0.013387956194607331 Xvl#78sp#28#14 + 0.013387956194607331 Xvl#99sp#14#11 + 0.013387956194607331 Zs#14 + 0.011780644401248748 Xvl#73sp#15#33 + 0.011780644401248748 Xvl#79sp#15 + 0.011780644401248748 Xvl#81sp#12#15 + 0.011780644401248748 Xvl#96sp#12#15#37 + 0.011780644401248748 Zs#15 + 0.011780644401248748 Xvl#72sp#34#16 + 0.011780644401248748 Xvl#78sp#16 + 0.011780644401248748 Xvl#80sp#16#11 + 0.011780644401248748 Xvl#97sp#38#16#11 + 0.011780644401248748 Zs#16 + 0.01802483822707691 Xvl#73sp#17#42 + 0.01802483822707691 Xvl#79sp#17#36 + 0.01802483822707691 Zs#17 + 0.01802483822707691 Xvl#72sp#41#18 + 0.01802483822707691 Xvl#78sp#35#18 + 0.01802483822707691 Zs#18 + 0.010949424607736862 Xvl#77sp#24#19#29 + 0.010949424607736862 Xvl#81sp#19#27 + 0.010949424607736862 Xvl#93sp#19#29#43 + 0.010949424607736862 Xvl#94sp#19#29#39 + 0.010949424607736862 Xvl#96sp#19#27#37 + 0.010949424607736862 Xvl#98sp#19 + 0.010949424607736862 Xvl#101sp#22#19 + 0.010949424607736862 Zs#19 + 0.010949424607736862 Xvl#76sp#30#20#23 + 0.010949424607736862 Xvl#80sp#28#20 + 0.010949424607736862 Xvl#92sp#44#30#20 + 0.010949424607736862 Xvl#95sp#40#30#20 + 0.010949424607736862 Xvl#97sp#38#28#20 + 0.010949424607736862 Xvl#99sp#20 + 0.010949424607736862 Xvl#100sp#20#21 + 0.010949424607736862 Zs#20 + 0.016880201211998448 Xvl#93sp#21#47 + 0.016880201211998448 Xvl#94sp#21 + 0.016880201211998448 Xvl#100sp#20#21 + 0.016880201211998448 Zs#21 + 0.016880201211998448 Xvl#92sp#48#22 + 0.016880201211998448 Xvl#95sp#22 + 0.016880201211998448 Xvl#101sp#22#19 + 0.016880201211998448 Zs#22 + 0.011175806613842354 Xvl#76sp#30#20#23 + 0.011175806613842354 Xvl#94sp#23#46 + 0.011175806613842354 Xvl#98sp#23#32 + 0.011175806613842354 Zs#23 + 0.011175806613842354 Xvl#77sp#24#19#29 + 0.011175806613842354 Xvl#95sp#45#24 + 0.011175806613842354 Xvl#99sp#31#24 + 0.011175806613842354 Zs#24 + 0.01761897210916715 Xvl#81sp#25#38 + 0.01761897210916715 Xvl#93sp#25#57 + 0.01761897210916715 Xvl#96sp#25 + 0.01761897210916715 Zs#25 + 0.01761897210916715 Xvl#80sp#37#26 + 0.01761897210916715 Xvl#92sp#58#26 + 0.01761897210916715 Xvl#97sp#26 + 0.01761897210916715 Zs#26 + 0.014124293785310733 Xvl#79sp#13#27 + 0.014124293785310733 Xvl#81sp#19#27 + 0.014124293785310733 Xvl#96sp#19#27#37 + 0.014124293785310733 Zs#27 + 0.014124293785310733 Xvl#78sp#28#14 + 0.014124293785310733 Xvl#80sp#28#20 + 0.014124293785310733 Xvl#97sp#38#28#20 + 0.014124293785310733 Zs#28 + 0.010571830300980007 Xvl#73sp#13#29 + 0.010571830300980007 Xvl#77sp#32#29 + 0.010571830300980007 Xvl#77sp#24#19#29 + 0.010571830300980007 Xvl#91sp#29#43 + 0.010571830300980007 Xvl#91sp#29#39#47 + 0.010571830300980007 Xvl#91sp#29#41#55 + 0.010571830300980007 Xvl#93sp#19#29#43 + 0.010571830300980007 Xvl#94sp#19#29#39 + 0.010571830300980007 Xvl#100sp#29#39 + 0.010571830300980007 Zs#29 + 0.010571830300980007 Xvl#72sp#30#14 + 0.010571830300980007 Xvl#76sp#30#31 + 0.010571830300980007 Xvl#76sp#30#20#23 + 0.010571830300980007 Xvl#90sp#44#30 + 0.010571830300980007 Xvl#90sp#48#40#30 + 0.010571830300980007 Xvl#90sp#56#42#30 + 0.010571830300980007 Xvl#92sp#44#30#20 + 0.010571830300980007 Xvl#95sp#40#30#20 + 0.010571830300980007 Xvl#101sp#40#30 + 0.010571830300980007 Zs#30 + 0.013250649281814809 Xvl#76sp#30#31 + 0.013250649281814809 Xvl#99sp#31#24 + 0.013250649281814809 Xvl#100sp#31#46 + 0.013250649281814809 Zs#31 + 0.013250649281814809 Xvl#77sp#32#29 + 0.013250649281814809 Xvl#98sp#23#32 + 0.013250649281814809 Xvl#101sp#45#32 + 0.013250649281814809 Zs#32 + 0.010978756106933083 Xvl#73sp#15#33 + 0.010978756106933083 Xvl#75sp#38#33 + 0.010978756106933083 Xvl#82sp#33#43 + 0.010978756106933083 Zs#33 + 0.010978756106933083 Xvl#72sp#34#16 + 0.010978756106933083 Xvl#74sp#34#37 + 0.010978756106933083 Xvl#83sp#44#34 + 0.010978756106933083 Zs#34 + 0.016454404844176786 Xvl#78sp#35#18 + 0.016454404844176786 Xvl#82sp#35#55 + 0.016454404844176786 Zs#35 + 0.016454404844176786 Xvl#79sp#17#36 + 0.016454404844176786 Xvl#83sp#56#36 + 0.016454404844176786 Zs#36 + 0.010142502155281709 Xvl#74sp#34#37 + 0.010142502155281709 Xvl#80sp#37#26 + 0.010142502155281709 Xvl#82sp#37#57 + 0.010142502155281709 Xvl#96sp#19#27#37 + 0.010142502155281709 Xvl#96sp#12#15#37 + 0.010142502155281709 Zs#37 + 0.010142502155281709 Xvl#75sp#38#33 + 0.010142502155281709 Xvl#81sp#25#38 + 0.010142502155281709 Xvl#83sp#58#38 + 0.010142502155281709 Xvl#97sp#38#28#20 + 0.010142502155281709 Xvl#97sp#38#16#11 + 0.010142502155281709 Zs#38 + 0.01036602431869305 Xvl#76sp#39#45 + 0.01036602431869305 Xvl#85sp#44#39#45 + 0.01036602431869305 Xvl#86sp#44#39 + 0.01036602431869305 Xvl#91sp#29#39#47 + 0.01036602431869305 Xvl#94sp#19#29#39 + 0.01036602431869305 Xvl#100sp#29#39 + 0.01036602431869305 Zs#39 + 0.01036602431869305 Xvl#77sp#46#40 + 0.01036602431869305 Xvl#84sp#46#40#43 + 0.01036602431869305 Xvl#87sp#40#43 + 0.01036602431869305 Xvl#90sp#48#40#30 + 0.01036602431869305 Xvl#95sp#40#30#20 + 0.01036602431869305 Xvl#101sp#40#30 + 0.01036602431869305 Zs#40 + 0.01132272017029371 Xvl#72sp#41#18 + 0.01132272017029371 Xvl#74sp#41#53 + 0.01132272017029371 Xvl#91sp#29#41#55 + 0.01132272017029371 Zs#41 + 0.01132272017029371 Xvl#73sp#17#42 + 0.01132272017029371 Xvl#75sp#54#42 + 0.01132272017029371 Xvl#90sp#56#42#30 + 0.01132272017029371 Zs#42 + 0.01026831096552928 Xvl#74sp#43#58 + 0.01026831096552928 Xvl#82sp#33#43 + 0.01026831096552928 Xvl#84sp#46#40#43 + 0.01026831096552928 Xvl#87sp#40#43 + 0.01026831096552928 Xvl#91sp#29#43 + 0.01026831096552928 Xvl#93sp#19#29#43 + 0.01026831096552928 Zs#43 + 0.01026831096552928 Xvl#75sp#57#44 + 0.01026831096552928 Xvl#83sp#44#34 + 0.01026831096552928 Xvl#85sp#44#39#45 + 0.01026831096552928 Xvl#86sp#44#39 + 0.01026831096552928 Xvl#90sp#44#30 + 0.01026831096552928 Xvl#92sp#44#30#20 + 0.01026831096552928 Zs#44 + 0.01175696012039127 Xvl#76sp#39#45 + 0.01175696012039127 Xvl#85sp#48#45 + 0.01175696012039127 Xvl#85sp#44#39#45 + 0.01175696012039127 Xvl#95sp#45#24 + 0.01175696012039127 Xvl#101sp#45#32 + 0.01175696012039127 Zs#45 + 0.01175696012039127 Xvl#77sp#46#40 + 0.01175696012039127 Xvl#84sp#46#47 + 0.01175696012039127 Xvl#84sp#46#40#43 + 0.01175696012039127 Xvl#94sp#23#46 + 0.01175696012039127 Xvl#100sp#31#46 + 0.01175696012039127 Zs#46 + 0.011664120000466564 Xvl#84sp#46#47 + 0.011664120000466564 Xvl#87sp#47 + 0.011664120000466564 Xvl#91sp#29#39#47 + 0.011664120000466564 Xvl#93sp#21#47 + 0.011664120000466564 Zs#47 + 0.011664120000466564 Xvl#85sp#48#45 + 0.011664120000466564 Xvl#86sp#48 + 0.011664120000466564 Xvl#90sp#48#40#30 + 0.011664120000466564 Xvl#92sp#48#22 + 0.011664120000466564 Zs#48 + 0.014194867136043605 Xvl#87sp#49#62 + 0.014194867136043605 Zs#49 + 0.014194867136043605 Xvl#86sp#61#50 + 0.014194867136043605 Zs#50 + 0.016541776255934365 Xvl#84sp#51#62 + 0.016541776255934365 Zs#51 + 0.016541776255934365 Xvl#85sp#61#52 + 0.016541776255934365 Zs#52 + 0.010577085801320019 Xvl#74sp#41#53 + 0.010577085801320019 Xvl#88sp#56#53 + 0.010577085801320019 Zs#53 + 0.010577085801320019 Xvl#75sp#54#42 + 0.010577085801320019 Xvl#89sp#54#55 + 0.010577085801320019 Zs#54 + 0.011451605515093216 Xvl#82sp#35#55 + 0.011451605515093216 Xvl#89sp#54#55 + 0.011451605515093216 Xvl#91sp#29#41#55 + 0.011451605515093216 Zs#55 + 0.011451605515093216 Xvl#83sp#56#36 + 0.011451605515093216 Xvl#88sp#56#53 + 0.011451605515093216 Xvl#90sp#56#42#30 + 0.011451605515093216 Zs#56 + 0.011505891016200294 Xvl#75sp#57#44 + 0.011505891016200294 Xvl#82sp#37#57 + 0.011505891016200294 Xvl#89sp#57 + 0.011505891016200294 Xvl#93sp#25#57 + 0.011505891016200294 Zs#57 + 0.011505891016200294 Xvl#74sp#43#58 + 0.011505891016200294 Xvl#83sp#58#38 + 0.011505891016200294 Xvl#88sp#58 + 0.011505891016200294 Xvl#92sp#58#26 + 0.011505891016200294 Zs#58 + 0.012207329280500012 Xvl#89sp#59#62 + 0.012207329280500012 Zs#59 + 0.012207329280500012 Xvl#88sp#61#60 + 0.012207329280500012 Zs#60 + 0.014587040872888526 Xvl#85sp#61#52 + 0.014587040872888526 Xvl#86sp#61#50 + 0.014587040872888526 Xvl#88sp#61#60 + 0.014587040872888526 Zs#61 + 0.014587040872888526 Xvl#84sp#51#62 + 0.014587040872888526 Xvl#87sp#49#62 + 0.014587040872888526 Xvl#89sp#59#62 + 0.014587040872888526 Zs#62
Subject To
 + Xvl#80sp#16#11 + Xvl#97sp#38#16#11 + Xvl#99sp#14#11 + Zs#11 <= 68.438
 + Xvl#81sp#12#15 + Xvl#96sp#12#15#37 + Xvl#98sp#12#13 + Zs#12 <= 68.438
 + Xvl#73sp#13#29 + Xvl#79sp#13#27 + Xvl#98sp#12#13 + Zs#13 <= 74.684
 + Xvl#72sp#30#14 + Xvl#78sp#28#14 + Xvl#99sp#14#11 + Zs#14 <= 74.684
 + Xvl#73sp#15#33 + Xvl#79sp#15 + Xvl#81sp#12#15 + Xvl#96sp#12#15#37 + Zs#15 <= 84.875
 + Xvl#72sp#34#16 + Xvl#78sp#16 + Xvl#80sp#16#11 + Xvl#97sp#38#16#11 + Zs#16 <= 84.875
 + Xvl#73sp#17#42 + Xvl#79sp#17#36 + Zs#17 <= 55.469
 + Xvl#72sp#41#18 + Xvl#78sp#35#18 + Zs#18 <= 55.469
 + Xvl#77sp#24#19#29 + Xvl#81sp#19#27 + Xvl#93sp#19#29#43 + Xvl#94sp#19#29#39 + Xvl#96sp#19#27#37 + Xvl#98sp#19 + Xvl#101sp#22#19 + Zs#19 <= 91.319
 + Xvl#76sp#30#20#23 + Xvl#80sp#28#20 + Xvl#92sp#44#30#20 + Xvl#95sp#40#30#20 + Xvl#97sp#38#28#20 + Xvl#99sp#20 + Xvl#100sp#20#21 + Zs#20 <= 91.319
 + Xvl#93sp#21#47 + Xvl#94sp#21 + Xvl#100sp#20#21 + Zs#21 <= 59.231
 + Xvl#92sp#48#22 + Xvl#95sp#22 + Xvl#101sp#22#19 + Zs#22 <= 59.231
 + Xvl#76sp#30#20#23 + Xvl#94sp#23#46 + Xvl#98sp#23#32 + Zs#23 <= 89.469
 + Xvl#77sp#24#19#29 + Xvl#95sp#45#24 + Xvl#99sp#31#24 + Zs#24 <= 89.469
 + Xvl#81sp#25#38 + Xvl#93sp#25#57 + Xvl#96sp#25 + Zs#25 <= 56.747
 + Xvl#80sp#37#26 + Xvl#92sp#58#26 + Xvl#97sp#26 + Zs#26 <= 56.747
 + Xvl#79sp#13#27 + Xvl#81sp#19#27 + Xvl#96sp#19#27#37 + Zs#27 <= 70.79
 + Xvl#78sp#28#14 + Xvl#80sp#28#20 + Xvl#97sp#38#28#20 + Zs#28 <= 70.79
 + Xvl#73sp#13#29 + Xvl#77sp#32#29 + Xvl#77sp#24#19#29 + Xvl#91sp#29#43 + Xvl#91sp#29#39#47 + Xvl#91sp#29#41#55 + Xvl#93sp#19#29#43 + Xvl#94sp#19#29#39 + Xvl#100sp#29#39 + Zs#29 <= 94.581
 + Xvl#72sp#30#14 + Xvl#76sp#30#31 + Xvl#76sp#30#20#23 + Xvl#90sp#44#30 + Xvl#90sp#48#40#30 + Xvl#90sp#56#42#30 + Xvl#92sp#44#30#20 + Xvl#95sp#40#30#20 + Xvl#101sp#40#30 + Zs#30 <= 94.581
 + Xvl#76sp#30#31 + Xvl#99sp#31#24 + Xvl#100sp#31#46 + Zs#31 <= 75.458
 + Xvl#77sp#32#29 + Xvl#98sp#23#32 + Xvl#101sp#45#32 + Zs#32 <= 75.458
 + Xvl#73sp#15#33 + Xvl#75sp#38#33 + Xvl#82sp#33#43 + Zs#33 <= 91.075
 + Xvl#72sp#34#16 + Xvl#74sp#34#37 + Xvl#83sp#44#34 + Zs#34 <= 91.075
 + Xvl#78sp#35#18 + Xvl#82sp#35#55 + Zs#35 <= 60.764
 + Xvl#79sp#17#36 + Xvl#83sp#56#36 + Zs#36 <= 60.764
 + Xvl#74sp#34#37 + Xvl#80sp#37#26 + Xvl#82sp#37#57 + Xvl#96sp#19#27#37 + Xvl#96sp#12#15#37 + Zs#37 <= 98.585
 + Xvl#75sp#38#33 + Xvl#81sp#25#38 + Xvl#83sp#58#38 + Xvl#97sp#38#28#20 + Xvl#97sp#38#16#11 + Zs#38 <= 98.585
 + Xvl#76sp#39#45 + Xvl#85sp#44#39#45 + Xvl#86sp#44#39 + Xvl#91sp#29#39#47 + Xvl#94sp#19#29#39 + Xvl#100sp#29#39 + Zs#39 <= 96.459
 + Xvl#77sp#46#40 + Xvl#84sp#46#40#43 + Xvl#87sp#40#43 + Xvl#90sp#48#40#30 + Xvl#95sp#40#30#20 + Xvl#101sp#40#30 + Zs#40 <= 96.459
 + Xvl#72sp#41#18 + Xvl#74sp#41#53 + Xvl#91sp#29#41#55 + Zs#41 <= 88.308
 + Xvl#73sp#17#42 + Xvl#75sp#54#42 + Xvl#90sp#56#42#30 + Zs#42 <= 88.308
 + Xvl#74sp#43#58 + Xvl#82sp#33#43 + Xvl#84sp#46#40#43 + Xvl#87sp#40#43 + Xvl#91sp#29#43 + Xvl#93sp#19#29#43 + Zs#43 <= 97.377
 + Xvl#75sp#57#44 + Xvl#83sp#44#34 + Xvl#85sp#44#39#45 + Xvl#86sp#44#39 + Xvl#90sp#44#30 + Xvl#92sp#44#30#20 + Zs#44 <= 97.377
 + Xvl#76sp#39#45 + Xvl#85sp#48#45 + Xvl#85sp#44#39#45 + Xvl#95sp#45#24 + Xvl#101sp#45#32 + Zs#45 <= 85.046
 + Xvl#77sp#46#40 + Xvl#84sp#46#47 + Xvl#84sp#46#40#43 + Xvl#94sp#23#46 + Xvl#100sp#31#46 + Zs#46 <= 85.046
 + Xvl#84sp#46#47 + Xvl#87sp#47 + Xvl#91sp#29#39#47 + Xvl#93sp#21#47 + Zs#47 <= 85.723
 + Xvl#85sp#48#45 + Xvl#86sp#48 + Xvl#90sp#48#40#30 + Xvl#92sp#48#22 + Zs#48 <= 85.723
 + Xvl#87sp#49#62 + Zs#49 <= 70.438
 + Xvl#86sp#61#50 + Zs#50 <= 70.438
 + Xvl#84sp#51#62 + Zs#51 <= 60.443
 + Xvl#85sp#61#52 + Zs#52 <= 60.443
 + Xvl#74sp#41#53 + Xvl#88sp#56#53 + Zs#53 <= 94.534
 + Xvl#75sp#54#42 + Xvl#89sp#54#55 + Zs#54 <= 94.534
 + Xvl#82sp#35#55 + Xvl#89sp#54#55 + Xvl#91sp#29#41#55 + Zs#55 <= 87.314
 + Xvl#83sp#56#36 + Xvl#88sp#56#53 + Xvl#90sp#56#42#30 + Zs#56 <= 87.314
 + Xvl#75sp#57#44 + Xvl#82sp#37#57 + Xvl#89sp#57 + Xvl#93sp#25#57 + Zs#57 <= 86.902
 + Xvl#74sp#43#58 + Xvl#83sp#58#38 + Xvl#88sp#58 + Xvl#92sp#58#26 + Zs#58 <= 86.902
 + Xvl#89sp#59#62 + Zs#59 <= 81.908
 + Xvl#88sp#61#60 + Zs#60 <= 81.908
 + Xvl#85sp#61#52 + Xvl#86sp#61#50 + Xvl#88sp#61#60 + Zs#61 <= 68.544
 + Xvl#84sp#51#62 + Xvl#87sp#49#62 + Xvl#89sp#59#62 + Zs#62 <= 68.544
 + Xvl#72sp#34#16 + Xvl#72sp#30#14 + Xvl#72sp#41#18 = 48.9512095191133
 + Xvl#73sp#15#33 + Xvl#73sp#13#29 + Xvl#73sp#17#42 = 48.9512095191133
 + Xvl#74sp#34#37 + Xvl#74sp#43#58 + Xvl#74sp#41#53 = 33.44735362976393
 + Xvl#75sp#38#33 + Xvl#75sp#57#44 + Xvl#75sp#54#42 = 33.44735362976393
 + Xvl#76sp#39#45 + Xvl#76sp#30#31 + Xvl#76sp#30#20#23 = 38.69406535995319
 + Xvl#77sp#46#40 + Xvl#77sp#32#29 + Xvl#77sp#24#19#29 = 38.69406535995319
 + Xvl#78sp#16 + Xvl#78sp#28#14 + Xvl#78sp#35#18 = 30.5081655470948
 + Xvl#79sp#15 + Xvl#79sp#13#27 + Xvl#79sp#17#36 = 30.5081655470948
 + Xvl#80sp#28#20 + Xvl#80sp#16#11 + Xvl#80sp#37#26 = 47.83925091130373
 + Xvl#81sp#19#27 + Xvl#81sp#12#15 + Xvl#81sp#25#38 = 47.83925091130373
 + Xvl#82sp#33#43 + Xvl#82sp#37#57 + Xvl#82sp#35#55 = 11.795170173717768
 + Xvl#83sp#44#34 + Xvl#83sp#58#38 + Xvl#83sp#56#36 = 11.795170173717768
 + Xvl#84sp#46#47 + Xvl#84sp#51#62 + Xvl#84sp#46#40#43 = 4.694410033058033
 + Xvl#85sp#48#45 + Xvl#85sp#61#52 + Xvl#85sp#44#39#45 = 4.694410033058033
 + Xvl#86sp#48 + Xvl#86sp#44#39 + Xvl#86sp#61#50 = 37.569509625104466
 + Xvl#87sp#47 + Xvl#87sp#40#43 + Xvl#87sp#49#62 = 37.569509625104466
 + Xvl#88sp#58 + Xvl#88sp#56#53 + Xvl#88sp#61#60 = 7.2832292595775785
 + Xvl#89sp#57 + Xvl#89sp#54#55 + Xvl#89sp#59#62 = 7.2832292595775785
 + Xvl#90sp#44#30 + Xvl#90sp#48#40#30 + Xvl#90sp#56#42#30 = 38.51916095334989
 + Xvl#91sp#29#43 + Xvl#91sp#29#39#47 + Xvl#91sp#29#41#55 = 38.51916095334989
 + Xvl#92sp#48#22 + Xvl#92sp#58#26 + Xvl#92sp#44#30#20 = 23.85866045733583
 + Xvl#93sp#21#47 + Xvl#93sp#25#57 + Xvl#93sp#19#29#43 = 23.85866045733583
 + Xvl#94sp#21 + Xvl#94sp#23#46 + Xvl#94sp#19#29#39 = 28.903221277059508
 + Xvl#95sp#22 + Xvl#95sp#45#24 + Xvl#95sp#40#30#20 = 28.903221277059508
 + Xvl#96sp#25 + Xvl#96sp#19#27#37 + Xvl#96sp#12#15#37 = 12.497064105783206
 + Xvl#97sp#26 + Xvl#97sp#38#28#20 + Xvl#97sp#38#16#11 = 12.497064105783206
 + Xvl#98sp#19 + Xvl#98sp#23#32 + Xvl#98sp#12#13 = 30.99587264886227
 + Xvl#99sp#20 + Xvl#99sp#31#24 + Xvl#99sp#14#11 = 30.99587264886227
 + Xvl#100sp#29#39 + Xvl#100sp#31#46 + Xvl#100sp#20#21 = 22.874169994585447
 + Xvl#101sp#40#30 + Xvl#101sp#45#32 + Xvl#101sp#22#19 = 22.874169994585447
 + yf#11r#13#20 + yf#11r#15#28#20 + yf#11r#13#31#24 - Xvl#80sp#16#11 - Xvl#97sp#38#16#11 - Xvl#99sp#14#11 = 0
 + yf#12r#19#14 + yf#12r#19#27#16 + yf#12r#23#32#14 - Xvl#81sp#12#15 - Xvl#96sp#12#15#37 - Xvl#98sp#12#13 = 0
 + yf#13r#11#19 + yf#13r#15#28 + yf#13r#15#33#30 - Xvl#73sp#13#29 - Xvl#79sp#13#27 - Xvl#98sp#12#13 = 0
 + yf#14r#20#12 + yf#14r#27#16 + yf#14r#29#34#16 - Xvl#72sp#30#14 - Xvl#78sp#28#14 - Xvl#99sp#14#11 = 0
 + yf#15r#13#27 + yf#15r#17#36 + yf#15r#13#29#34 - Xvl#73sp#15#33 - Xvl#79sp#15 - Xvl#81sp#12#15 - Xvl#96sp#12#15#37 = 0
 + yf#16r#28#14 + yf#16r#35#18 + yf#16r#33#30#14 - Xvl#72sp#34#16 - Xvl#78sp#16 - Xvl#80sp#16#11 - Xvl#97sp#38#16#11 = 0
 + yf#17r#15#35 + yf#17r#15#37#54 + yf#17r#15#33#41 - Xvl#73sp#17#42 - Xvl#79sp#17#36 = 0
 + yf#18r#36#16 + yf#18r#53#38#16 + yf#18r#42#34#16 - Xvl#72sp#41#18 - Xvl#78sp#35#18 = 0
 + yf#19r#23#32 + yf#19r#12#13 + yf#19r#21#40#30 - Xvl#77sp#24#19#29 - Xvl#81sp#19#27 - Xvl#93sp#19#29#43 - Xvl#94sp#19#29#39 - Xvl#96sp#19#27#37 - Xvl#98sp#19 - Xvl#101sp#22#19 = 0
 + yf#20r#31#24 + yf#20r#14#11 + yf#20r#29#39#22 - Xvl#76sp#30#20#23 - Xvl#80sp#28#20 - Xvl#92sp#44#30#20 - Xvl#95sp#40#30#20 - Xvl#97sp#38#28#20 - Xvl#99sp#20 - Xvl#100sp#20#21 = 0
 + yf#21r#23#46 + yf#21r#19#29#39 + yf#21r#19#31#46 - Xvl#93sp#21#47 - Xvl#94sp#21 - Xvl#100sp#20#21 = 0
 + yf#22r#45#24 + yf#22r#40#30#20 + yf#22r#45#32#20 - Xvl#92sp#48#22 - Xvl#95sp#22 - Xvl#101sp#22#19 = 0
 + yf#23r#19#31 + yf#23r#21#45 + yf#23r#12#13#31 - Xvl#76sp#30#20#23 - Xvl#94sp#23#46 - Xvl#98sp#23#32 = 0
 + yf#24r#32#20 + yf#24r#46#22 + yf#24r#32#14#11 - Xvl#77sp#24#19#29 - Xvl#95sp#45#24 - Xvl#99sp#31#24 = 0
 + yf#25r#19#27#37 + yf#25r#12#15#37 + yf#25r#23#51#60 - Xvl#81sp#25#38 - Xvl#93sp#25#57 - Xvl#96sp#25 = 0
 + yf#26r#38#28#20 + yf#26r#38#16#11 + yf#26r#59#52#24 - Xvl#80sp#37#26 - Xvl#92sp#58#26 - Xvl#97sp#26 = 0
 + yf#27r#29#34 + yf#27r#14#15 + yf#27r#20#12#15 - Xvl#79sp#13#27 - Xvl#81sp#19#27 - Xvl#96sp#19#27#37 = 0
 + yf#28r#33#30 + yf#28r#16#13 + yf#28r#16#11#19 - Xvl#78sp#28#14 - Xvl#80sp#28#20 - Xvl#97sp#38#28#20 = 0
 + yf#29r#27#33 + yf#29r#31#46#40 + yf#29r#14#15#33 - Xvl#73sp#13#29 - Xvl#77sp#32#29 - Xvl#77sp#24#19#29 - Xvl#91sp#29#43 - Xvl#91sp#29#39#47 - Xvl#91sp#29#41#55 - Xvl#93sp#19#29#43 - Xvl#94sp#19#29#39 - Xvl#100sp#29#39 = 0
 + yf#30r#34#28 + yf#30r#39#45#32 + yf#30r#34#16#13 - Xvl#72sp#30#14 - Xvl#76sp#30#31 - Xvl#76sp#30#20#23 - Xvl#90sp#44#30 - Xvl#90sp#48#40#30 - Xvl#90sp#56#42#30 - Xvl#92sp#44#30#20 - Xvl#95sp#40#30#20 - Xvl#101sp#40#30 = 0
 + yf#31r#20#23 + yf#31r#29#39#45 + yf#31r#14#11#23 - Xvl#76sp#30#31 - Xvl#99sp#31#24 - Xvl#100sp#31#46 = 0
 + yf#32r#24#19 + yf#32r#46#40#30 + yf#32r#24#12#13 - Xvl#77sp#32#29 - Xvl#98sp#23#32 - Xvl#101sp#45#32 = 0
 + yf#33r#28#29 + yf#33r#35#42 + yf#33r#37#57#44 - Xvl#73sp#15#33 - Xvl#75sp#38#33 - Xvl#82sp#33#43 = 0
 + yf#34r#30#27 + yf#34r#41#36 + yf#34r#43#58#38 - Xvl#72sp#34#16 - Xvl#74sp#34#37 - Xvl#83sp#44#34 = 0
 + yf#35r#37#54 + yf#35r#33#41 + yf#35r#16#17 - Xvl#78sp#35#18 - Xvl#82sp#35#55 = 0
 + yf#36r#53#38 + yf#36r#42#34 + yf#36r#18#15 - Xvl#79sp#17#36 - Xvl#83sp#56#36 = 0
 + yf#37r#35#53 + yf#37r#33#43#58 + yf#37r#33#41#53 - Xvl#74sp#34#37 - Xvl#80sp#37#26 - Xvl#82sp#37#57 - Xvl#96sp#19#27#37 - Xvl#96sp#12#15#37 = 0
 + yf#38r#54#36 + yf#38r#57#44#34 + yf#38r#54#42#34 - Xvl#75sp#38#33 - Xvl#81sp#25#38 - Xvl#83sp#58#38 - Xvl#97sp#38#28#20 - Xvl#97sp#38#16#11 = 0
 + yf#39r#43#48 + yf#39r#41#55#48 + yf#39r#30#31#46 - Xvl#76sp#39#45 - Xvl#85sp#44#39#45 - Xvl#86sp#44#39 - Xvl#91sp#29#39#47 - Xvl#94sp#19#29#39 - Xvl#100sp#29#39 = 0
 + yf#40r#47#44 + yf#40r#47#56#42 + yf#40r#45#32#29 - Xvl#77sp#46#40 - Xvl#84sp#46#40#43 - Xvl#87sp#40#43 - Xvl#90sp#48#40#30 - Xvl#95sp#40#30#20 - Xvl#101sp#40#30 = 0
 + yf#41r#43#56 + yf#41r#34#35 + yf#41r#34#37#54 - Xvl#72sp#41#18 - Xvl#74sp#41#53 - Xvl#91sp#29#41#55 = 0
 + yf#42r#55#44 + yf#42r#36#33 + yf#42r#53#38#33 - Xvl#73sp#17#42 - Xvl#75sp#54#42 - Xvl#90sp#56#42#30 = 0
 + yf#43r#39#47 + yf#43r#41#55 + yf#43r#34#37#57 - Xvl#74sp#43#58 - Xvl#82sp#33#43 - Xvl#84sp#46#40#43 - Xvl#87sp#40#43 - Xvl#91sp#29#43 - Xvl#93sp#19#29#43 = 0
 + yf#44r#48#40 + yf#44r#56#42 + yf#44r#58#38#33 - Xvl#75sp#57#44 - Xvl#83sp#44#34 - Xvl#85sp#44#39#45 - Xvl#86sp#44#39 - Xvl#90sp#44#30 - Xvl#92sp#44#30#20 = 0
 + yf#45r#22#23 + yf#45r#49#52 + yf#45r#40#30#31 - Xvl#76sp#39#45 - Xvl#85sp#48#45 - Xvl#85sp#44#39#45 - Xvl#95sp#45#24 - Xvl#101sp#45#32 = 0
 + yf#46r#24#21 + yf#46r#51#50 + yf#46r#32#29#39 - Xvl#77sp#46#40 - Xvl#84sp#46#47 - Xvl#84sp#46#40#43 - Xvl#94sp#23#46 - Xvl#100sp#31#46 = 0
 + yf#47r#40#43 + yf#47r#49#62 + yf#47r#40#41#55 - Xvl#84sp#46#47 - Xvl#87sp#47 - Xvl#91sp#29#39#47 - Xvl#93sp#21#47 = 0
 + yf#48r#44#39 + yf#48r#61#50 + yf#48r#56#42#39 - Xvl#85sp#48#45 - Xvl#86sp#48 - Xvl#90sp#48#40#30 - Xvl#92sp#48#22 = 0
 + yf#49r#47#61 + yf#49r#45#51 + yf#49r#40#43#61 - Xvl#87sp#49#62 = 0
 + yf#50r#62#48 + yf#50r#52#46 + yf#50r#62#44#39 - Xvl#86sp#61#50 = 0
 + yf#51r#46#49 + yf#51r#46#47#61 + yf#51r#24#25#59 - Xvl#84sp#51#62 = 0
 + yf#52r#50#45 + yf#52r#62#48#45 + yf#52r#60#26#23 - Xvl#85sp#61#52 = 0
 + yf#53r#55#58 + yf#53r#36#37 + yf#53r#42#34#37 - Xvl#74sp#41#53 - Xvl#88sp#56#53 = 0
 + yf#54r#57#56 + yf#54r#38#35 + yf#54r#38#33#41 - Xvl#75sp#54#42 - Xvl#89sp#54#55 = 0
 + yf#55r#42#43 + yf#55r#53#57 + yf#55r#42#39#47 - Xvl#82sp#35#55 - Xvl#89sp#54#55 - Xvl#91sp#29#41#55 = 0
 + yf#56r#44#41 + yf#56r#58#54 + yf#56r#48#40#41 - Xvl#83sp#56#36 - Xvl#88sp#56#53 - Xvl#90sp#56#42#30 = 0
 + yf#57r#54#55 + yf#57r#59#62 + yf#57r#38#33#43 - Xvl#75sp#57#44 - Xvl#82sp#37#57 - Xvl#89sp#57 - Xvl#93sp#25#57 = 0
 + yf#58r#56#53 + yf#58r#61#60 + yf#58r#44#34#37 - Xvl#74sp#43#58 - Xvl#83sp#58#38 - Xvl#88sp#58 - Xvl#92sp#58#26 = 0
 + yf#59r#57#61 + yf#59r#54#55#61 + yf#59r#57#48#49 - Xvl#89sp#59#62 = 0
 + yf#60r#62#58 + yf#60r#62#56#53 + yf#60r#50#47#58 - Xvl#88sp#61#60 = 0
 + yf#61r#58#59 + yf#61r#48#49 + yf#61r#56#53#59 - Xvl#85sp#61#52 - Xvl#86sp#61#50 - Xvl#88sp#61#60 = 0
 + yf#62r#60#57 + yf#62r#50#47 + yf#62r#60#54#55 - Xvl#84sp#51#62 - Xvl#87sp#49#62 - Xvl#89sp#59#62 = 0
 + yf#11r#13#20 + yf#11r#13#31#24 - Zs#13 <= 0.0
 + yf#11r#15#28#20 - Zs#15 <= 0.0
 + yf#11r#13#20 + yf#11r#15#28#20 - Zs#20 <= 0.0
 + yf#11r#13#31#24 - Zs#24 <= 0.0
 + yf#11r#15#28#20 - Zs#28 <= 0.0
 + yf#11r#13#31#24 - Zs#31 <= 0.0
 + yf#12r#19#14 + yf#12r#23#32#14 - Zs#14 <= 0.0
 + yf#12r#19#27#16 - Zs#16 <= 0.0
 + yf#12r#19#14 + yf#12r#19#27#16 - Zs#19 <= 0.0
 + yf#12r#23#32#14 - Zs#23 <= 0.0
 + yf#12r#19#27#16 - Zs#27 <= 0.0
 + yf#12r#23#32#14 - Zs#32 <= 0.0
 + yf#13r#11#19 - Zs#11 <= 0.0
 + yf#13r#15#28 + yf#13r#15#33#30 - Zs#15 <= 0.0
 + yf#13r#11#19 - Zs#19 <= 0.0
 + yf#13r#15#28 - Zs#28 <= 0.0
 + yf#13r#15#33#30 - Zs#30 <= 0.0
 + yf#13r#15#33#30 - Zs#33 <= 0.0
 + yf#14r#20#12 - Zs#12 <= 0.0
 + yf#14r#27#16 + yf#14r#29#34#16 - Zs#16 <= 0.0
 + yf#14r#20#12 - Zs#20 <= 0.0
 + yf#14r#27#16 - Zs#27 <= 0.0
 + yf#14r#29#34#16 - Zs#29 <= 0.0
 + yf#14r#29#34#16 - Zs#34 <= 0.0
 + yf#15r#13#27 + yf#15r#13#29#34 - Zs#13 <= 0.0
 + yf#15r#17#36 - Zs#17 <= 0.0
 + yf#15r#13#27 - Zs#27 <= 0.0
 + yf#15r#13#29#34 - Zs#29 <= 0.0
 + yf#15r#13#29#34 - Zs#34 <= 0.0
 + yf#15r#17#36 - Zs#36 <= 0.0
 + yf#16r#28#14 + yf#16r#33#30#14 - Zs#14 <= 0.0
 + yf#16r#35#18 - Zs#18 <= 0.0
 + yf#16r#28#14 - Zs#28 <= 0.0
 + yf#16r#33#30#14 - Zs#30 <= 0.0
 + yf#16r#33#30#14 - Zs#33 <= 0.0
 + yf#16r#35#18 - Zs#35 <= 0.0
 + yf#17r#15#35 + yf#17r#15#37#54 + yf#17r#15#33#41 - Zs#15 <= 0.0
 + yf#17r#15#33#41 - Zs#33 <= 0.0
 + yf#17r#15#35 - Zs#35 <= 0.0
 + yf#17r#15#37#54 - Zs#37 <= 0.0
 + yf#17r#15#33#41 - Zs#41 <= 0.0
 + yf#17r#15#37#54 - Zs#54 <= 0.0
 + yf#18r#36#16 + yf#18r#53#38#16 + yf#18r#42#34#16 - Zs#16 <= 0.0
 + yf#18r#42#34#16 - Zs#34 <= 0.0
 + yf#18r#36#16 - Zs#36 <= 0.0
 + yf#18r#53#38#16 - Zs#38 <= 0.0
 + yf#18r#42#34#16 - Zs#42 <= 0.0
 + yf#18r#53#38#16 - Zs#53 <= 0.0
 + yf#19r#12#13 - Zs#12 <= 0.0
 + yf#19r#12#13 - Zs#13 <= 0.0
 + yf#19r#21#40#30 - Zs#21 <= 0.0
 + yf#19r#23#32 - Zs#23 <= 0.0
 + yf#19r#21#40#30 - Zs#30 <= 0.0
 + yf#19r#23#32 - Zs#32 <= 0.0
 + yf#19r#21#40#30 - Zs#40 <= 0.0
 + yf#20r#14#11 - Zs#11 <= 0.0
 + yf#20r#14#11 - Zs#14 <= 0.0
 + yf#20r#29#39#22 - Zs#22 <= 0.0
 + yf#20r#31#24 - Zs#24 <= 0.0
 + yf#20r#29#39#22 - Zs#29 <= 0.0
 + yf#20r#31#24 - Zs#31 <= 0.0
 + yf#20r#29#39#22 - Zs#39 <= 0.0
 + yf#21r#19#29#39 + yf#21r#19#31#46 - Zs#19 <= 0.0
 + yf#21r#23#46 - Zs#23 <= 0.0
 + yf#21r#19#29#39 - Zs#29 <= 0.0
 + yf#21r#19#31#46 - Zs#31 <= 0.0
 + yf#21r#19#29#39 - Zs#39 <= 0.0
 + yf#21r#23#46 + yf#21r#19#31#46 - Zs#46 <= 0.0
 + yf#22r#40#30#20 + yf#22r#45#32#20 - Zs#20 <= 0.0
 + yf#22r#45#24 - Zs#24 <= 0.0
 + yf#22r#40#30#20 - Zs#30 <= 0.0
 + yf#22r#45#32#20 - Zs#32 <= 0.0
 + yf#22r#40#30#20 - Zs#40 <= 0.0
 + yf#22r#45#24 + yf#22r#45#32#20 - Zs#45 <= 0.0
 + yf#23r#12#13#31 - Zs#12 <= 0.0
 + yf#23r#12#13#31 - Zs#13 <= 0.0
 + yf#23r#19#31 - Zs#19 <= 0.0
 + yf#23r#21#45 - Zs#21 <= 0.0
 + yf#23r#19#31 + yf#23r#12#13#31 - Zs#31 <= 0.0
 + yf#23r#21#45 - Zs#45 <= 0.0
 + yf#24r#32#14#11 - Zs#11 <= 0.0
 + yf#24r#32#14#11 - Zs#14 <= 0.0
 + yf#24r#32#20 - Zs#20 <= 0.0
 + yf#24r#46#22 - Zs#22 <= 0.0
 + yf#24r#32#20 + yf#24r#32#14#11 - Zs#32 <= 0.0
 + yf#24r#46#22 - Zs#46 <= 0.0
 + yf#25r#12#15#37 - Zs#12 <= 0.0
 + yf#25r#12#15#37 - Zs#15 <= 0.0
 + yf#25r#19#27#37 - Zs#19 <= 0.0
 + yf#25r#23#51#60 - Zs#23 <= 0.0
 + yf#25r#19#27#37 - Zs#27 <= 0.0
 + yf#25r#19#27#37 + yf#25r#12#15#37 - Zs#37 <= 0.0
 + yf#25r#23#51#60 - Zs#51 <= 0.0
 + yf#25r#23#51#60 - Zs#60 <= 0.0
 + yf#26r#38#16#11 - Zs#11 <= 0.0
 + yf#26r#38#16#11 - Zs#16 <= 0.0
 + yf#26r#38#28#20 - Zs#20 <= 0.0
 + yf#26r#59#52#24 - Zs#24 <= 0.0
 + yf#26r#38#28#20 - Zs#28 <= 0.0
 + yf#26r#38#28#20 + yf#26r#38#16#11 - Zs#38 <= 0.0
 + yf#26r#59#52#24 - Zs#52 <= 0.0
 + yf#26r#59#52#24 - Zs#59 <= 0.0
 + yf#27r#20#12#15 - Zs#12 <= 0.0
 + yf#27r#14#15 - Zs#14 <= 0.0
 + yf#27r#14#15 + yf#27r#20#12#15 - Zs#15 <= 0.0
 + yf#27r#20#12#15 - Zs#20 <= 0.0
 + yf#27r#29#34 - Zs#29 <= 0.0
 + yf#27r#29#34 - Zs#34 <= 0.0
 + yf#28r#16#11#19 - Zs#11 <= 0.0
 + yf#28r#16#13 - Zs#13 <= 0.0
 + yf#28r#16#13 + yf#28r#16#11#19 - Zs#16 <= 0.0
 + yf#28r#16#11#19 - Zs#19 <= 0.0
 + yf#28r#33#30 - Zs#30 <= 0.0
 + yf#28r#33#30 - Zs#33 <= 0.0
 + yf#29r#14#15#33 - Zs#14 <= 0.0
 + yf#29r#14#15#33 - Zs#15 <= 0.0
 + yf#29r#27#33 - Zs#27 <= 0.0
 + yf#29r#31#46#40 - Zs#31 <= 0.0
 + yf#29r#27#33 + yf#29r#14#15#33 - Zs#33 <= 0.0
 + yf#29r#31#46#40 - Zs#40 <= 0.0
 + yf#29r#31#46#40 - Zs#46 <= 0.0
 + yf#30r#34#16#13 - Zs#13 <= 0.0
 + yf#30r#34#16#13 - Zs#16 <= 0.0
 + yf#30r#34#28 - Zs#28 <= 0.0
 + yf#30r#39#45#32 - Zs#32 <= 0.0
 + yf#30r#34#28 + yf#30r#34#16#13 - Zs#34 <= 0.0
 + yf#30r#39#45#32 - Zs#39 <= 0.0
 + yf#30r#39#45#32 - Zs#45 <= 0.0
 + yf#31r#14#11#23 - Zs#11 <= 0.0
 + yf#31r#14#11#23 - Zs#14 <= 0.0
 + yf#31r#20#23 - Zs#20 <= 0.0
 + yf#31r#20#23 + yf#31r#14#11#23 - Zs#23 <= 0.0
 + yf#31r#29#39#45 - Zs#29 <= 0.0
 + yf#31r#29#39#45 - Zs#39 <= 0.0
 + yf#31r#29#39#45 - Zs#45 <= 0.0
 + yf#32r#24#12#13 - Zs#12 <= 0.0
 + yf#32r#24#12#13 - Zs#13 <= 0.0
 + yf#32r#24#19 - Zs#19 <= 0.0
 + yf#32r#24#19 + yf#32r#24#12#13 - Zs#24 <= 0.0
 + yf#32r#46#40#30 - Zs#30 <= 0.0
 + yf#32r#46#40#30 - Zs#40 <= 0.0
 + yf#32r#46#40#30 - Zs#46 <= 0.0
 + yf#33r#28#29 - Zs#28 <= 0.0
 + yf#33r#28#29 - Zs#29 <= 0.0
 + yf#33r#35#42 - Zs#35 <= 0.0
 + yf#33r#37#57#44 - Zs#37 <= 0.0
 + yf#33r#35#42 - Zs#42 <= 0.0
 + yf#33r#37#57#44 - Zs#44 <= 0.0
 + yf#33r#37#57#44 - Zs#57 <= 0.0
 + yf#34r#30#27 - Zs#27 <= 0.0
 + yf#34r#30#27 - Zs#30 <= 0.0
 + yf#34r#41#36 - Zs#36 <= 0.0
 + yf#34r#43#58#38 - Zs#38 <= 0.0
 + yf#34r#41#36 - Zs#41 <= 0.0
 + yf#34r#43#58#38 - Zs#43 <= 0.0
 + yf#34r#43#58#38 - Zs#58 <= 0.0
 + yf#35r#16#17 - Zs#16 <= 0.0
 + yf#35r#16#17 - Zs#17 <= 0.0
 + yf#35r#33#41 - Zs#33 <= 0.0
 + yf#35r#37#54 - Zs#37 <= 0.0
 + yf#35r#33#41 - Zs#41 <= 0.0
 + yf#35r#37#54 - Zs#54 <= 0.0
 + yf#36r#18#15 - Zs#15 <= 0.0
 + yf#36r#18#15 - Zs#18 <= 0.0
 + yf#36r#42#34 - Zs#34 <= 0.0
 + yf#36r#53#38 - Zs#38 <= 0.0
 + yf#36r#42#34 - Zs#42 <= 0.0
 + yf#36r#53#38 - Zs#53 <= 0.0
 + yf#37r#33#43#58 + yf#37r#33#41#53 - Zs#33 <= 0.0
 + yf#37r#35#53 - Zs#35 <= 0.0
 + yf#37r#33#41#53 - Zs#41 <= 0.0
 + yf#37r#33#43#58 - Zs#43 <= 0.0
 + yf#37r#35#53 + yf#37r#33#41#53 - Zs#53 <= 0.0
 + yf#37r#33#43#58 - Zs#58 <= 0.0
 + yf#38r#57#44#34 + yf#38r#54#42#34 - Zs#34 <= 0.0
 + yf#38r#54#36 - Zs#36 <= 0.0
 + yf#38r#54#42#34 - Zs#42 <= 0.0
 + yf#38r#57#44#34 - Zs#44 <= 0.0
 + yf#38r#54#36 + yf#38r#54#42#34 - Zs#54 <= 0.0
 + yf#38r#57#44#34 - Zs#57 <= 0.0
 + yf#39r#30#31#46 - Zs#30 <= 0.0
 + yf#39r#30#31#46 - Zs#31 <= 0.0
 + yf#39r#41#55#48 - Zs#41 <= 0.0
 + yf#39r#43#48 - Zs#43 <= 0.0
 + yf#39r#30#31#46 - Zs#46 <= 0.0
 + yf#39r#43#48 + yf#39r#41#55#48 - Zs#48 <= 0.0
 + yf#39r#41#55#48 - Zs#55 <= 0.0
 + yf#40r#45#32#29 - Zs#29 <= 0.0
 + yf#40r#45#32#29 - Zs#32 <= 0.0
 + yf#40r#47#56#42 - Zs#42 <= 0.0
 + yf#40r#47#44 - Zs#44 <= 0.0
 + yf#40r#45#32#29 - Zs#45 <= 0.0
 + yf#40r#47#44 + yf#40r#47#56#42 - Zs#47 <= 0.0
 + yf#40r#47#56#42 - Zs#56 <= 0.0
 + yf#41r#34#35 + yf#41r#34#37#54 - Zs#34 <= 0.0
 + yf#41r#34#35 - Zs#35 <= 0.0
 + yf#41r#34#37#54 - Zs#37 <= 0.0
 + yf#41r#43#56 - Zs#43 <= 0.0
 + yf#41r#34#37#54 - Zs#54 <= 0.0
 + yf#41r#43#56 - Zs#56 <= 0.0
 + yf#42r#36#33 + yf#42r#53#38#33 - Zs#33 <= 0.0
 + yf#42r#36#33 - Zs#36 <= 0.0
 + yf#42r#53#38#33 - Zs#38 <= 0.0
 + yf#42r#55#44 - Zs#44 <= 0.0
 + yf#42r#53#38#33 - Zs#53 <= 0.0
 + yf#42r#55#44 - Zs#55 <= 0.0
 + yf#43r#34#37#57 - Zs#34 <= 0.0
 + yf#43r#34#37#57 - Zs#37 <= 0.0
 + yf#43r#39#47 - Zs#39 <= 0.0
 + yf#43r#41#55 - Zs#41 <= 0.0
 + yf#43r#39#47 - Zs#47 <= 0.0
 + yf#43r#41#55 - Zs#55 <= 0.0
 + yf#43r#34#37#57 - Zs#57 <= 0.0
 + yf#44r#58#38#33 - Zs#33 <= 0.0
 + yf#44r#58#38#33 - Zs#38 <= 0.0
 + yf#44r#48#40 - Zs#40 <= 0.0
 + yf#44r#56#42 - Zs#42 <= 0.0
 + yf#44r#48#40 - Zs#48 <= 0.0
 + yf#44r#56#42 - Zs#56 <= 0.0
 + yf#44r#58#38#33 - Zs#58 <= 0.0
 + yf#45r#22#23 - Zs#22 <= 0.0
 + yf#45r#22#23 - Zs#23 <= 0.0
 + yf#45r#40#30#31 - Zs#30 <= 0.0
 + yf#45r#40#30#31 - Zs#31 <= 0.0
 + yf#45r#40#30#31 - Zs#40 <= 0.0
 + yf#45r#49#52 - Zs#49 <= 0.0
 + yf#45r#49#52 - Zs#52 <= 0.0
 + yf#46r#24#21 - Zs#21 <= 0.0
 + yf#46r#24#21 - Zs#24 <= 0.0
 + yf#46r#32#29#39 - Zs#29 <= 0.0
 + yf#46r#32#29#39 - Zs#32 <= 0.0
 + yf#46r#32#29#39 - Zs#39 <= 0.0
 + yf#46r#51#50 - Zs#50 <= 0.0
 + yf#46r#51#50 - Zs#51 <= 0.0
 + yf#47r#40#43 + yf#47r#40#41#55 - Zs#40 <= 0.0
 + yf#47r#40#41#55 - Zs#41 <= 0.0
 + yf#47r#40#43 - Zs#43 <= 0.0
 + yf#47r#49#62 - Zs#49 <= 0.0
 + yf#47r#40#41#55 - Zs#55 <= 0.0
 + yf#47r#49#62 - Zs#62 <= 0.0
 + yf#48r#44#39 + yf#48r#56#42#39 - Zs#39 <= 0.0
 + yf#48r#56#42#39 - Zs#42 <= 0.0
 + yf#48r#44#39 - Zs#44 <= 0.0
 + yf#48r#61#50 - Zs#50 <= 0.0
 + yf#48r#56#42#39 - Zs#56 <= 0.0
 + yf#48r#61#50 - Zs#61 <= 0.0
 + yf#49r#40#43#61 - Zs#40 <= 0.0
 + yf#49r#40#43#61 - Zs#43 <= 0.0
 + yf#49r#45#51 - Zs#45 <= 0.0
 + yf#49r#47#61 - Zs#47 <= 0.0
 + yf#49r#45#51 - Zs#51 <= 0.0
 + yf#49r#47#61 + yf#49r#40#43#61 - Zs#61 <= 0.0
 + yf#50r#62#44#39 - Zs#39 <= 0.0
 + yf#50r#62#44#39 - Zs#44 <= 0.0
 + yf#50r#52#46 - Zs#46 <= 0.0
 + yf#50r#62#48 - Zs#48 <= 0.0
 + yf#50r#52#46 - Zs#52 <= 0.0
 + yf#50r#62#48 + yf#50r#62#44#39 - Zs#62 <= 0.0
 + yf#51r#24#25#59 - Zs#24 <= 0.0
 + yf#51r#24#25#59 - Zs#25 <= 0.0
 + yf#51r#46#49 + yf#51r#46#47#61 - Zs#46 <= 0.0
 + yf#51r#46#47#61 - Zs#47 <= 0.0
 + yf#51r#46#49 - Zs#49 <= 0.0
 + yf#51r#24#25#59 - Zs#59 <= 0.0
 + yf#51r#46#47#61 - Zs#61 <= 0.0
 + yf#52r#60#26#23 - Zs#23 <= 0.0
 + yf#52r#60#26#23 - Zs#26 <= 0.0
 + yf#52r#50#45 + yf#52r#62#48#45 - Zs#45 <= 0.0
 + yf#52r#62#48#45 - Zs#48 <= 0.0
 + yf#52r#50#45 - Zs#50 <= 0.0
 + yf#52r#60#26#23 - Zs#60 <= 0.0
 + yf#52r#62#48#45 - Zs#62 <= 0.0
 + yf#53r#42#34#37 - Zs#34 <= 0.0
 + yf#53r#36#37 - Zs#36 <= 0.0
 + yf#53r#36#37 + yf#53r#42#34#37 - Zs#37 <= 0.0
 + yf#53r#42#34#37 - Zs#42 <= 0.0
 + yf#53r#55#58 - Zs#55 <= 0.0
 + yf#53r#55#58 - Zs#58 <= 0.0
 + yf#54r#38#33#41 - Zs#33 <= 0.0
 + yf#54r#38#35 - Zs#35 <= 0.0
 + yf#54r#38#35 + yf#54r#38#33#41 - Zs#38 <= 0.0
 + yf#54r#38#33#41 - Zs#41 <= 0.0
 + yf#54r#57#56 - Zs#56 <= 0.0
 + yf#54r#57#56 - Zs#57 <= 0.0
 + yf#55r#42#39#47 - Zs#39 <= 0.0
 + yf#55r#42#43 + yf#55r#42#39#47 - Zs#42 <= 0.0
 + yf#55r#42#43 - Zs#43 <= 0.0
 + yf#55r#42#39#47 - Zs#47 <= 0.0
 + yf#55r#53#57 - Zs#53 <= 0.0
 + yf#55r#53#57 - Zs#57 <= 0.0
 + yf#56r#48#40#41 - Zs#40 <= 0.0
 + yf#56r#44#41 + yf#56r#48#40#41 - Zs#41 <= 0.0
 + yf#56r#44#41 - Zs#44 <= 0.0
 + yf#56r#48#40#41 - Zs#48 <= 0.0
 + yf#56r#58#54 - Zs#54 <= 0.0
 + yf#56r#58#54 - Zs#58 <= 0.0
 + yf#57r#38#33#43 - Zs#33 <= 0.0
 + yf#57r#38#33#43 - Zs#38 <= 0.0
 + yf#57r#38#33#43 - Zs#43 <= 0.0
 + yf#57r#54#55 - Zs#54 <= 0.0
 + yf#57r#54#55 - Zs#55 <= 0.0
 + yf#57r#59#62 - Zs#59 <= 0.0
 + yf#57r#59#62 - Zs#62 <= 0.0
 + yf#58r#44#34#37 - Zs#34 <= 0.0
 + yf#58r#44#34#37 - Zs#37 <= 0.0
 + yf#58r#44#34#37 - Zs#44 <= 0.0
 + yf#58r#56#53 - Zs#53 <= 0.0
 + yf#58r#56#53 - Zs#56 <= 0.0
 + yf#58r#61#60 - Zs#60 <= 0.0
 + yf#58r#61#60 - Zs#61 <= 0.0
 + yf#59r#57#48#49 - Zs#48 <= 0.0
 + yf#59r#57#48#49 - Zs#49 <= 0.0
 + yf#59r#54#55#61 - Zs#54 <= 0.0
 + yf#59r#54#55#61 - Zs#55 <= 0.0
 + yf#59r#57#61 + yf#59r#57#48#49 - Zs#57 <= 0.0
 + yf#59r#57#61 + yf#59r#54#55#61 - Zs#61 <= 0.0
 + yf#60r#50#47#58 - Zs#47 <= 0.0
 + yf#60r#50#47#58 - Zs#50 <= 0.0
 + yf#60r#62#56#53 - Zs#53 <= 0.0
 + yf#60r#62#56#53 - Zs#56 <= 0.0
 + yf#60r#62#58 + yf#60r#50#47#58 - Zs#58 <= 0.0
 + yf#60r#62#58 + yf#60r#62#56#53 - Zs#62 <= 0.0
 + yf#61r#48#49 - Zs#48 <= 0.0
 + yf#61r#48#49 - Zs#49 <= 0.0
 + yf#61r#56#53#59 - Zs#53 <= 0.0
 + yf#61r#56#53#59 - Zs#56 <= 0.0
 + yf#61r#58#59 - Zs#58 <= 0.0
 + yf#61r#58#59 + yf#61r#56#53#59 - Zs#59 <= 0.0
 + yf#62r#50#47 - Zs#47 <= 0.0
 + yf#62r#50#47 - Zs#50 <= 0.0
 + yf#62r#60#54#55 - Zs#54 <= 0.0
 + yf#62r#60#54#55 - Zs#55 <= 0.0
 + yf#62r#60#57 - Zs#57 <= 0.0
 + yf#62r#60#57 + yf#62r#60#54#55 - Zs#60 <= 0.0
Bounds
 Zs#11>= 0 
 Zs#12>= 0 
 Zs#13>= 0 
 Zs#14>= 0 
 Zs#15>= 0 
 Zs#16>= 0 
 Zs#17>= 0 
 Zs#18>= 0 
 Zs#19>= 0 
 Zs#20>= 0 
 Zs#21>= 0 
 Zs#22>= 0 
 Zs#23>= 0 
 Zs#24>= 0 
 Zs#25>= 0 
 Zs#26>= 0 
 Zs#27>= 0 
 Zs#28>= 0 
 Zs#29>= 0 
 Zs#30>= 0 
 Zs#31>= 0 
 Zs#32>= 0 
 Zs#33>= 0 
 Zs#34>= 0 
 Zs#35>= 0 
 Zs#36>= 0 
 Zs#37>= 0 
 Zs#38>= 0 
 Zs#39>= 0 
 Zs#40>= 0 
 Zs#41>= 0 
 Zs#42>= 0 
 Zs#43>= 0 
 Zs#44>= 0 
 Zs#45>= 0 
 Zs#46>= 0 
 Zs#47>= 0 
 Zs#48>= 0 
 Zs#49>= 0 
 Zs#50>= 0 
 Zs#51>= 0 
 Zs#52>= 0 
 Zs#53>= 0 
 Zs#54>= 0 
 Zs#55>= 0 
 Zs#56>= 0 
 Zs#57>= 0 
 Zs#58>= 0 
 Zs#59>= 0 
 Zs#60>= 0 
 Zs#61>= 0 
 Zs#62>= 0 
 Xvl#72sp#34#16 >= 0 
 Xvl#72sp#30#14 >= 0 
 Xvl#72sp#41#18 >= 0 
 Xvl#73sp#15#33 >= 0 
 Xvl#73sp#13#29 >= 0 
 Xvl#73sp#17#42 >= 0 
 Xvl#74sp#34#37 >= 0 
 Xvl#74sp#43#58 >= 0 
 Xvl#74sp#41#53 >= 0 
 Xvl#75sp#38#33 >= 0 
 Xvl#75sp#57#44 >= 0 
 Xvl#75sp#54#42 >= 0 
 Xvl#76sp#39#45 >= 0 
 Xvl#76sp#30#31 >= 0 
 Xvl#76sp#30#20#23 >= 0 
 Xvl#77sp#46#40 >= 0 
 Xvl#77sp#32#29 >= 0 
 Xvl#77sp#24#19#29 >= 0 
 Xvl#78sp#16 >= 0 
 Xvl#78sp#28#14 >= 0 
 Xvl#78sp#35#18 >= 0 
 Xvl#79sp#15 >= 0 
 Xvl#79sp#13#27 >= 0 
 Xvl#79sp#17#36 >= 0 
 Xvl#80sp#28#20 >= 0 
 Xvl#80sp#16#11 >= 0 
 Xvl#80sp#37#26 >= 0 
 Xvl#81sp#19#27 >= 0 
 Xvl#81sp#12#15 >= 0 
 Xvl#81sp#25#38 >= 0 
 Xvl#82sp#33#43 >= 0 
 Xvl#82sp#37#57 >= 0 
 Xvl#82sp#35#55 >= 0 
 Xvl#83sp#44#34 >= 0 
 Xvl#83sp#58#38 >= 0 
 Xvl#83sp#56#36 >= 0 
 Xvl#84sp#46#47 >= 0 
 Xvl#84sp#51#62 >= 0 
 Xvl#84sp#46#40#43 >= 0 
 Xvl#85sp#48#45 >= 0 
 Xvl#85sp#61#52 >= 0 
 Xvl#85sp#44#39#45 >= 0 
 Xvl#86sp#48 >= 0 
 Xvl#86sp#44#39 >= 0 
 Xvl#86sp#61#50 >= 0 
 Xvl#87sp#47 >= 0 
 Xvl#87sp#40#43 >= 0 
 Xvl#87sp#49#62 >= 0 
 Xvl#88sp#58 >= 0 
 Xvl#88sp#56#53 >= 0 
 Xvl#88sp#61#60 >= 0 
 Xvl#89sp#57 >= 0 
 Xvl#89sp#54#55 >= 0 
 Xvl#89sp#59#62 >= 0 
 Xvl#90sp#44#30 >= 0 
 Xvl#90sp#48#40#30 >= 0 
 Xvl#90sp#56#42#30 >= 0 
 Xvl#91sp#29#43 >= 0 
 Xvl#91sp#29#39#47 >= 0 
 Xvl#91sp#29#41#55 >= 0 
 Xvl#92sp#48#22 >= 0 
 Xvl#92sp#58#26 >= 0 
 Xvl#92sp#44#30#20 >= 0 
 Xvl#93sp#21#47 >= 0 
 Xvl#93sp#25#57 >= 0 
 Xvl#93sp#19#29#43 >= 0 
 Xvl#94sp#21 >= 0 
 Xvl#94sp#23#46 >= 0 
 Xvl#94sp#19#29#39 >= 0 
 Xvl#95sp#22 >= 0 
 Xvl#95sp#45#24 >= 0 
 Xvl#95sp#40#30#20 >= 0 
 Xvl#96sp#25 >= 0 
 Xvl#96sp#19#27#37 >= 0 
 Xvl#96sp#12#15#37 >= 0 
 Xvl#97sp#26 >= 0 
 Xvl#97sp#38#28#20 >= 0 
 Xvl#97sp#38#16#11 >= 0 
 Xvl#98sp#19 >= 0 
 Xvl#98sp#23#32 >= 0 
 Xvl#98sp#12#13 >= 0 
 Xvl#99sp#20 >= 0 
 Xvl#99sp#31#24 >= 0 
 Xvl#99sp#14#11 >= 0 
 Xvl#100sp#29#39 >= 0 
 Xvl#100sp#31#46 >= 0 
 Xvl#100sp#20#21 >= 0 
 Xvl#101sp#40#30 >= 0 
 Xvl#101sp#45#32 >= 0 
 Xvl#101sp#22#19 >= 0 
 yf#11r#13#20 >= 0 
 yf#11r#15#28#20 >= 0 
 yf#11r#13#31#24 >= 0 
 yf#12r#19#14 >= 0 
 yf#12r#19#27#16 >= 0 
 yf#12r#23#32#14 >= 0 
 yf#13r#11#19 >= 0 
 yf#13r#15#28 >= 0 
 yf#13r#15#33#30 >= 0 
 yf#14r#20#12 >= 0 
 yf#14r#27#16 >= 0 
 yf#14r#29#34#16 >= 0 
 yf#15r#13#27 >= 0 
 yf#15r#17#36 >= 0 
 yf#15r#13#29#34 >= 0 
 yf#16r#28#14 >= 0 
 yf#16r#35#18 >= 0 
 yf#16r#33#30#14 >= 0 
 yf#17r#15#35 >= 0 
 yf#17r#15#37#54 >= 0 
 yf#17r#15#33#41 >= 0 
 yf#18r#36#16 >= 0 
 yf#18r#53#38#16 >= 0 
 yf#18r#42#34#16 >= 0 
 yf#19r#23#32 >= 0 
 yf#19r#12#13 >= 0 
 yf#19r#21#40#30 >= 0 
 yf#20r#31#24 >= 0 
 yf#20r#14#11 >= 0 
 yf#20r#29#39#22 >= 0 
 yf#21r#23#46 >= 0 
 yf#21r#19#29#39 >= 0 
 yf#21r#19#31#46 >= 0 
 yf#22r#45#24 >= 0 
 yf#22r#40#30#20 >= 0 
 yf#22r#45#32#20 >= 0 
 yf#23r#19#31 >= 0 
 yf#23r#21#45 >= 0 
 yf#23r#12#13#31 >= 0 
 yf#24r#32#20 >= 0 
 yf#24r#46#22 >= 0 
 yf#24r#32#14#11 >= 0 
 yf#25r#19#27#37 >= 0 
 yf#25r#12#15#37 >= 0 
 yf#25r#23#51#60 >= 0 
 yf#26r#38#28#20 >= 0 
 yf#26r#38#16#11 >= 0 
 yf#26r#59#52#24 >= 0 
 yf#27r#29#34 >= 0 
 yf#27r#14#15 >= 0 
 yf#27r#20#12#15 >= 0 
 yf#28r#33#30 >= 0 
 yf#28r#16#13 >= 0 
 yf#28r#16#11#19 >= 0 
 yf#29r#27#33 >= 0 
 yf#29r#31#46#40 >= 0 
 yf#29r#14#15#33 >= 0 
 yf#30r#34#28 >= 0 
 yf#30r#39#45#32 >= 0 
 yf#30r#34#16#13 >= 0 
 yf#31r#20#23 >= 0 
 yf#31r#29#39#45 >= 0 
 yf#31r#14#11#23 >= 0 
 yf#32r#24#19 >= 0 
 yf#32r#46#40#30 >= 0 
 yf#32r#24#12#13 >= 0 
 yf#33r#28#29 >= 0 
 yf#33r#35#42 >= 0 
 yf#33r#37#57#44 >= 0 
 yf#34r#30#27 >= 0 
 yf#34r#41#36 >= 0 
 yf#34r#43#58#38 >= 0 
 yf#35r#37#54 >= 0 
 yf#35r#33#41 >= 0 
 yf#35r#16#17 >= 0 
 yf#36r#53#38 >= 0 
 yf#36r#42#34 >= 0 
 yf#36r#18#15 >= 0 
 yf#37r#35#53 >= 0 
 yf#37r#33#43#58 >= 0 
 yf#37r#33#41#53 >= 0 
 yf#38r#54#36 >= 0 
 yf#38r#57#44#34 >= 0 
 yf#38r#54#42#34 >= 0 
 yf#39r#43#48 >= 0 
 yf#39r#41#55#48 >= 0 
 yf#39r#30#31#46 >= 0 
 yf#40r#47#44 >= 0 
 yf#40r#47#56#42 >= 0 
 yf#40r#45#32#29 >= 0 
 yf#41r#43#56 >= 0 
 yf#41r#34#35 >= 0 
 yf#41r#34#37#54 >= 0 
 yf#42r#55#44 >= 0 
 yf#42r#36#33 >= 0 
 yf#42r#53#38#33 >= 0 
 yf#43r#39#47 >= 0 
 yf#43r#41#55 >= 0 
 yf#43r#34#37#57 >= 0 
 yf#44r#48#40 >= 0 
 yf#44r#56#42 >= 0 
 yf#44r#58#38#33 >= 0 
 yf#45r#22#23 >= 0 
 yf#45r#49#52 >= 0 
 yf#45r#40#30#31 >= 0 
 yf#46r#24#21 >= 0 
 yf#46r#51#50 >= 0 
 yf#46r#32#29#39 >= 0 
 yf#47r#40#43 >= 0 
 yf#47r#49#62 >= 0 
 yf#47r#40#41#55 >= 0 
 yf#48r#44#39 >= 0 
 yf#48r#61#50 >= 0 
 yf#48r#56#42#39 >= 0 
 yf#49r#47#61 >= 0 
 yf#49r#45#51 >= 0 
 yf#49r#40#43#61 >= 0 
 yf#50r#62#48 >= 0 
 yf#50r#52#46 >= 0 
 yf#50r#62#44#39 >= 0 
 yf#51r#46#49 >= 0 
 yf#51r#46#47#61 >= 0 
 yf#51r#24#25#59 >= 0 
 yf#52r#50#45 >= 0 
 yf#52r#62#48#45 >= 0 
 yf#52r#60#26#23 >= 0 
 yf#53r#55#58 >= 0 
 yf#53r#36#37 >= 0 
 yf#53r#42#34#37 >= 0 
 yf#54r#57#56 >= 0 
 yf#54r#38#35 >= 0 
 yf#54r#38#33#41 >= 0 
 yf#55r#42#43 >= 0 
 yf#55r#53#57 >= 0 
 yf#55r#42#39#47 >= 0 
 yf#56r#44#41 >= 0 
 yf#56r#58#54 >= 0 
 yf#56r#48#40#41 >= 0 
 yf#57r#54#55 >= 0 
 yf#57r#59#62 >= 0 
 yf#57r#38#33#43 >= 0 
 yf#58r#56#53 >= 0 
 yf#58r#61#60 >= 0 
 yf#58r#44#34#37 >= 0 
 yf#59r#57#61 >= 0 
 yf#59r#54#55#61 >= 0 
 yf#59r#57#48#49 >= 0 
 yf#60r#62#58 >= 0 
 yf#60r#62#56#53 >= 0 
 yf#60r#50#47#58 >= 0 
 yf#61r#58#59 >= 0 
 yf#61r#48#49 >= 0 
 yf#61r#56#53#59 >= 0 
 yf#62r#60#57 >= 0 
 yf#62r#50#47 >= 0 
 yf#62r#60#54#55 >= 0 
General
END